Route 1: 0 78 92 26 21 45 31 0
Route 2: 0 77 75 90 76 66 93 29 0
Route 3: 0 64 53 84 80 50 72 9 83 36 51 22 46 0
Route 4: 0 89 12 55 81 30 88 49 8 34 24 35 0
Route 5: 0 87 47 98 16 61 3 97 0
Route 6: 0 5 71 17 19 42 13 100 18 2 0
Route 7: 0 54 37 14 65 86 74 0
Route 8: 0 62 25 70 48 4 43 23 15 41 0
Route 9: 0 52 85 40 99 6 7 0
Route 10: 0 28 10 27 32 69 68 33 20 0
Route 11: 0 11 91 67 73 44 79 63 57 96 0
Route 12: 0 60 82 38 94 56 1 0
Route 13: 0 59 39 58 95 0
